; Options: -q --produce-models --incremental --print-success --lang smt2.6 --arrays-exp
(set-logic ALL)

(declare-fun start!2489 () Bool)

(assert start!2489)

(declare-fun b!13196 () Bool)

(declare-fun e!7257 () Bool)

(declare-fun e!7256 () Bool)

(assert (=> b!13196 (= e!7257 e!7256)))

(declare-fun res!10404 () Bool)

(assert (=> b!13196 (=> (not res!10404) (not e!7256))))

(declare-fun lt!6675 () (_ FloatingPoint 11 53))

(assert (=> b!13196 (= res!10404 (and (fp.leq (fp #b0 #b00000000000 #b0000000000000000000000000000000000000000000000000000) lt!6675) (fp.lt lt!6675 (fp #b0 #b10000000010 #b0000000000000000000000000000000000000000000000000000))))))

(declare-datatypes ((Unit!1422 0))(
  ( (Unit!1423) )
))
(declare-datatypes ((array!920 0))(
  ( (array!921 (arr!399 (Array (_ BitVec 32) (_ BitVec 32))) (size!399 (_ BitVec 32))) )
))
(declare-datatypes ((tuple4!280 0))(
  ( (tuple4!281 (_1!323 Unit!1422) (_2!323 array!920) (_3!255 (_ BitVec 32)) (_4!140 (_ FloatingPoint 11 53))) )
))
(declare-fun lt!6671 () tuple4!280)

(assert (=> b!13196 (= lt!6675 (fp.sub roundNearestTiesToEven (_4!140 lt!6671) (fp.mul roundNearestTiesToEven (fp #b0 #b10000000010 #b0000000000000000000000000000000000000000000000000000) ((_ to_fp 11 53) roundNearestTiesToEven (ite (fp.isNaN (fp.mul roundNearestTiesToEven (_4!140 lt!6671) (fp #b0 #b01111111100 #b0000000000000000000000000000000000000000000000000000))) #b0000000000000000000000000000000000000000000000000000000000000000 (ite (fp.gt (fp.mul roundNearestTiesToEven (_4!140 lt!6671) (fp #b0 #b01111111100 #b0000000000000000000000000000000000000000000000000000)) ((_ to_fp 11 53) roundTowardZero #b0111111111111111111111111111111111111111111111111111111111111111)) #b0111111111111111111111111111111111111111111111111111111111111111 (ite (fp.lt (fp.mul roundNearestTiesToEven (_4!140 lt!6671) (fp #b0 #b01111111100 #b0000000000000000000000000000000000000000000000000000)) ((_ to_fp 11 53) roundTowardZero #b1000000000000000000000000000000000000000000000000000000000000000)) #b1000000000000000000000000000000000000000000000000000000000000000 ((_ fp.to_sbv 64) roundTowardZero (fp.mul roundNearestTiesToEven (_4!140 lt!6671) (fp #b0 #b01111111100 #b0000000000000000000000000000000000000000000000000000))))))))))))

(declare-fun e!7258 () tuple4!280)

(assert (=> b!13196 (= lt!6671 e!7258)))

(declare-fun c!1609 () Bool)

(declare-fun jz!59 () (_ BitVec 32))

(assert (=> b!13196 (= c!1609 (bvsgt jz!59 #b00000000000000000000000000000000))))

(declare-fun lt!6679 () (_ FloatingPoint 11 53))

(declare-datatypes ((array!922 0))(
  ( (array!923 (arr!400 (Array (_ BitVec 32) (_ FloatingPoint 11 53))) (size!400 (_ BitVec 32))) )
))
(declare-fun q!93 () array!922)

(assert (=> b!13196 (= lt!6679 (select (arr!400 q!93) jz!59))))

(declare-fun lt!6676 () array!920)

(assert (=> b!13196 (= lt!6676 (array!921 ((as const (Array (_ BitVec 32) (_ BitVec 32))) #b00000000000000000000000000000000) #b00000000000000000000000000010100))))

(declare-fun b!13197 () Bool)

(declare-fun res!10403 () Bool)

(declare-fun e!7259 () Bool)

(assert (=> b!13197 (=> (not res!10403) (not e!7259))))

(declare-fun qq!48 () array!922)

(declare-fun qqInv!0 (array!922) Bool)

(assert (=> b!13197 (= res!10403 (qqInv!0 qq!48))))

(declare-fun b!13198 () Bool)

(declare-fun computeModuloWhile!0 ((_ BitVec 32) array!922 array!920 (_ BitVec 32) (_ FloatingPoint 11 53)) tuple4!280)

(assert (=> b!13198 (= e!7258 (computeModuloWhile!0 jz!59 q!93 lt!6676 jz!59 lt!6679))))

(declare-fun b!13199 () Bool)

(declare-fun res!10409 () Bool)

(assert (=> b!13199 (=> (not res!10409) (not e!7259))))

(declare-fun i!271 () (_ BitVec 32))

(declare-fun iq!194 () array!920)

(declare-fun QInt!0 ((_ BitVec 32)) Bool)

(assert (=> b!13199 (= res!10409 (QInt!0 (select (arr!399 iq!194) (bvsub (bvsub jz!59 #b00000000000000000000000000000001) i!271))))))

(declare-fun b!13200 () Bool)

(declare-fun Unit!1424 () Unit!1422)

(assert (=> b!13200 (= e!7258 (tuple4!281 Unit!1424 lt!6676 jz!59 lt!6679))))

(declare-datatypes ((tuple4!282 0))(
  ( (tuple4!283 (_1!324 Unit!1422) (_2!324 (_ BitVec 32)) (_3!256 array!920) (_4!141 (_ BitVec 32))) )
))
(declare-fun lt!6680 () tuple4!282)

(declare-fun b!13201 () Bool)

(declare-datatypes ((tuple3!230 0))(
  ( (tuple3!231 (_1!325 Unit!1422) (_2!325 array!920) (_3!257 (_ BitVec 32))) )
))
(declare-fun e!7263 () tuple3!230)

(declare-fun lt!6674 () (_ BitVec 32))

(declare-fun Unit!1425 () Unit!1422)

(assert (=> b!13201 (= e!7263 (tuple3!231 Unit!1425 (array!921 (store (arr!399 (_3!256 lt!6680)) (bvsub jz!59 #b00000000000000000000000000000001) (ite (= (_4!141 lt!6680) #b00000000000000000000000000000000) (bvsub #b00000001000000000000000000000000 lt!6674) (bvsub #b00000000111111111111111111111111 lt!6674))) (size!399 (_3!256 lt!6680))) (_4!141 lt!6680)))))

(declare-fun lt!6678 () (_ BitVec 32))

(assert (=> b!13201 (= lt!6678 #b00000000000000000000000000000000)))

(declare-fun c!1610 () Bool)

(assert (=> b!13201 (= c!1610 (bvslt lt!6678 (bvsub jz!59 #b00000000000000000000000000000001)))))

(declare-fun e!7261 () tuple4!282)

(assert (=> b!13201 (= lt!6680 e!7261)))

(assert (=> b!13201 (= lt!6674 (select (arr!399 (_3!256 lt!6680)) (bvsub jz!59 #b00000000000000000000000000000001)))))

(declare-fun b!13202 () Bool)

(declare-fun lt!6670 () (_ BitVec 32))

(declare-fun Unit!1426 () Unit!1422)

(assert (=> b!13202 (= e!7263 (tuple3!231 Unit!1426 (_2!323 lt!6671) lt!6670))))

(declare-fun res!10407 () Bool)

(assert (=> start!2489 (=> (not res!10407) (not e!7257))))

(assert (=> start!2489 (= res!10407 (and (bvsle #b00000000000000000000000000000010 jz!59) (bvslt jz!59 #b00000000000000000000000000010011)))))

(assert (=> start!2489 e!7257))

(assert (=> start!2489 true))

(declare-fun array_inv!348 (array!920) Bool)

(assert (=> start!2489 (array_inv!348 iq!194)))

(declare-fun array_inv!349 (array!922) Bool)

(assert (=> start!2489 (array_inv!349 qq!48)))

(assert (=> start!2489 (array_inv!349 q!93)))

(declare-fun b!13203 () Bool)

(declare-fun Unit!1427 () Unit!1422)

(assert (=> b!13203 (= e!7261 (tuple4!283 Unit!1427 lt!6678 (_2!323 lt!6671) lt!6670))))

(declare-fun b!13204 () Bool)

(assert (=> b!13204 (= e!7256 e!7259)))

(declare-fun res!10405 () Bool)

(assert (=> b!13204 (=> (not res!10405) (not e!7259))))

(declare-fun lt!6677 () tuple3!230)

(declare-fun lt!6673 () Bool)

(assert (=> b!13204 (= res!10405 (and (bvsle #b00000000000000000000000000000000 (select (arr!399 (_2!325 lt!6677)) (bvsub jz!59 #b00000000000000000000000000000001))) (bvsle (select (arr!399 (_2!325 lt!6677)) (bvsub jz!59 #b00000000000000000000000000000001)) #b00000000100000000000000000000000) (or (not lt!6673) (not (= (_3!257 lt!6677) #b00000000000000000000000000000000)) (not (= (select (arr!399 (_2!325 lt!6677)) (bvsub jz!59 #b00000000000000000000000000000001)) #b00000000100000000000000000000000))) (bvsle (select (arr!399 (_2!325 lt!6677)) (bvsub jz!59 #b00000000000000000000000000000001)) #b00000000011111111111111111111111) (bvsle #b00000000000000000000000000000000 i!271) (bvsle i!271 jz!59)))))

(assert (=> b!13204 (= lt!6677 e!7263)))

(declare-fun c!1608 () Bool)

(assert (=> b!13204 (= c!1608 lt!6673)))

(assert (=> b!13204 (= lt!6670 #b00000000000000000000000000000000)))

(assert (=> b!13204 (= lt!6673 (bvsge (select (arr!399 (_2!323 lt!6671)) (bvsub jz!59 #b00000000000000000000000000000001)) #b00000000100000000000000000000000))))

(declare-fun b!13205 () Bool)

(declare-fun res!10410 () Bool)

(assert (=> b!13205 (=> (not res!10410) (not e!7259))))

(assert (=> b!13205 (= res!10410 (bvslt i!271 jz!59))))

(declare-fun b!13206 () Bool)

(declare-fun res!10408 () Bool)

(assert (=> b!13206 (=> (not res!10408) (not e!7259))))

(assert (=> b!13206 (= res!10408 (and (bvsle (select (arr!399 iq!194) (bvsub jz!59 #b00000000000000000000000000000001)) #b00000000011111111111111111111111) (= (size!400 qq!48) #b00000000000000000000000000010100)))))

(declare-fun b!13207 () Bool)

(declare-fun res!10402 () Bool)

(assert (=> b!13207 (=> (not res!10402) (not e!7257))))

(declare-fun qInv!0 (array!922) Bool)

(assert (=> b!13207 (= res!10402 (qInv!0 q!93))))

(declare-fun b!13208 () Bool)

(declare-fun lt!6672 () (_ BitVec 32))

(assert (=> b!13208 (= e!7259 (or (bvslt lt!6672 #b00000000000000000000000000000000) (bvsge lt!6672 #b00000000000000000000000000010100)))))

(assert (=> b!13208 (= lt!6672 (bvadd i!271 #b00000000000000000000000000000001))))

(declare-fun b!13209 () Bool)

(declare-fun computeModuloWhile!3 ((_ BitVec 32) array!922 (_ BitVec 32) array!920 (_ BitVec 32)) tuple4!282)

(assert (=> b!13209 (= e!7261 (computeModuloWhile!3 jz!59 q!93 lt!6678 (_2!323 lt!6671) lt!6670))))

(declare-fun b!13210 () Bool)

(declare-fun res!10406 () Bool)

(assert (=> b!13210 (=> (not res!10406) (not e!7259))))

(declare-fun iqInv!0 (array!920) Bool)

(assert (=> b!13210 (= res!10406 (iqInv!0 iq!194))))

(assert (= (and start!2489 res!10407) b!13207))

(assert (= (and b!13207 res!10402) b!13196))

(assert (= (and b!13196 c!1609) b!13198))

(assert (= (and b!13196 (not c!1609)) b!13200))

(assert (= (and b!13196 res!10404) b!13204))

(assert (= (and b!13204 c!1608) b!13201))

(assert (= (and b!13204 (not c!1608)) b!13202))

(assert (= (and b!13201 c!1610) b!13209))

(assert (= (and b!13201 (not c!1610)) b!13203))

(assert (= (and b!13204 res!10405) b!13210))

(assert (= (and b!13210 res!10406) b!13206))

(assert (= (and b!13206 res!10408) b!13197))

(assert (= (and b!13197 res!10403) b!13205))

(assert (= (and b!13205 res!10410) b!13199))

(assert (= (and b!13199 res!10409) b!13208))

(declare-fun m!21155 () Bool)

(assert (=> b!13209 m!21155))

(declare-fun m!21157 () Bool)

(assert (=> b!13206 m!21157))

(declare-fun m!21159 () Bool)

(assert (=> b!13204 m!21159))

(declare-fun m!21161 () Bool)

(assert (=> b!13204 m!21161))

(declare-fun m!21163 () Bool)

(assert (=> b!13199 m!21163))

(assert (=> b!13199 m!21163))

(declare-fun m!21165 () Bool)

(assert (=> b!13199 m!21165))

(declare-fun m!21167 () Bool)

(assert (=> b!13197 m!21167))

(declare-fun m!21169 () Bool)

(assert (=> b!13196 m!21169))

(declare-fun m!21171 () Bool)

(assert (=> b!13210 m!21171))

(declare-fun m!21173 () Bool)

(assert (=> b!13198 m!21173))

(declare-fun m!21175 () Bool)

(assert (=> b!13207 m!21175))

(declare-fun m!21177 () Bool)

(assert (=> b!13201 m!21177))

(declare-fun m!21179 () Bool)

(assert (=> b!13201 m!21179))

(declare-fun m!21181 () Bool)

(assert (=> start!2489 m!21181))

(declare-fun m!21183 () Bool)

(assert (=> start!2489 m!21183))

(declare-fun m!21185 () Bool)

(assert (=> start!2489 m!21185))

(push 1)

(assert (not b!13197))

(assert (not b!13199))

(assert (not b!13207))

(assert (not b!13209))

(assert (not b!13198))

(assert (not start!2489))

(assert (not b!13210))

(check-sat)

(pop 1)

(push 1)

(check-sat)

(pop 1)

